NAME: instance_3189
TYPE: TSP
DIMENSION: 20
EDGE_WEIGHT_TYPE: EUC_2D
NODE_COORD_SECTION
0 5.44 33.24
1 52.43 91.23
2 50.83 7.46
3 17.48 46.36
4 67.08 25.32
5 28.27 94.06
6 45.89 63.89
7 30.24 25.41
8 36.93 14.88
9 27.31 63.31
10 88.51 12.48
11 40.46 50.01
12 0.30 69.84
13 18.20 35.15
14 37.28 13.42
15 84.81 64.69
16 42.00 72.88
17 12.22 34.11
18 4.13 20.45
19 13.66 36.82
EOF
